NAME : e23
COMMENT : mine
COMMENT : Derived from National Imagery and Mapping Agency data
TYPE : TSP
DIMENSION : 5
EDGE_WEIGHT_TYPE : EUC_2D
NODE_COORD_SECTION
1 24748.3333 50840.0000
2 24758.8889 51211.9444
3 24827.2222 51394.7222
4 24904.4444 51175.0000
5 24996.1111 51548.8889
EOF
